db/data/25245150791884610276277321085460964277.z3.out
sat
-------------------
366.975229462
